n_machines = 10;
n_resources = 17;
n_jobs = 74;
horizon = 3518;
LB = 480;
n_jobs_per_resource = [3, 6, 2, 3, 7, 1, 1, 7, 1, 3, 7, 4, 9, 9, 6, 4, 1];
duration = [35, 14, 22, 64, 75, 14, 86, 75, 47, 3, 90, 66, 25, 49, 39, 50, 61, 7, 10, 24, 69, 9, 17, 14, 98, 35, 85, 91, 10, 2, 38, 90, 3, 53, 78, 7, 66, 58, 24, 98, 9, 80, 85, 49, 15, 97, 79, 16, 94, 1, 34, 96, 3, 60, 76, 45, 46, 41, 49, 33, 37, 32, 74, 91, 54, 92, 11, 57, 61, 74, 17, 19, 65, 25]